c preprocessed version of BubbleSortGraph_5, 120 vertices, 240 edges
p td 120 240
0 1
0 32
0 37
0 76
1 38
1 54
1 87
2 13
2 33
2 68
3 4
3 18
4 19
5 6
5 7
6 9
7 8
7 14
8 10
8 15
9 10
9 20
10 21
11 12
11 14
12 16
13 34
13 69
14 15
15 17
16 17
16 22
17 23
18 19
18 20
19 22
20 21
21 23
22 23
24 25
24 26
24 90
25 28
25 91
26 27
26 92
27 29
27 93
28 29
28 35
28 94
29 36
29 95
30 31
30 33
30 116
31 35
31 117
32 24
32 39
32 43
33 34
33 118
34 36
34 119
35 3
35 36
36 4
37 38
37 39
37 44
38 41
38 45
39 40
39 50
40 42
40 51
41 42
41 57
42 58
43 25
43 40
43 65
44 45
44 46
44 70
45 48
45 71
46 47
46 52
46 72
47 49
47 53
47 73
48 49
48 59
48 74
49 60
49 75
50 51
50 52
50 96
51 55
51 97
52 53
52 99
53 56
53 100
54 30
54 41
54 65
55 56
55 61
55 101
56 62
56 102
57 5
57 58
57 59
58 6
58 61
59 7
59 60
60 8
60 62
61 9
61 62
62 10
63 64
63 66
63 70
64 68
64 71
65 31
65 42
66 67
66 77
67 69
67 78
68 69
68 83
69 84
70 71
70 72
71 74
72 73
72 79
73 75
73 80
74 75
74 85
75 86
76 63
76 87
76 98
77 78
77 79
77 103
78 81
78 104
79 80
79 105
80 82
80 106
81 82
81 88
81 107
82 89
82 108
83 11
83 84
83 85
84 12
84 88
85 14
85 86
86 15
86 89
87 2
87 64
88 16
88 89
89 17
90 91
90 92
90 96
91 94
91 97
92 93
92 103
93 95
93 104
94 95
94 110
95 111
96 97
96 99
97 101
98 26
98 66
98 109
99 100
99 105
100 102
100 106
101 102
101 112
102 113
103 104
103 105
104 107
105 106
106 108
107 108
107 114
108 115
109 13
109 27
109 67
110 18
110 111
110 112
111 19
111 114
112 20
112 113
113 21
113 115
114 22
114 115
115 23
116 5
116 117
116 118
117 3
117 6
118 11
118 119
119 4
119 12
